Me3SPbI3_am_up_ap_up                    
   1.00000000000000     
    10.0053181620240554    0.0211410560186699    0.0023264035989760
    -4.9843269478275927    8.6753254451717190   -0.0023294608644536
     0.0019337002356831   -0.0011018198420388    7.8390331173153083
   C    H    S    Pb   I 
     6    18     2     2     6
Direct
  0.5746345747937051  0.1514571148377131  0.3826670376859543
  0.8485273405500896  0.4253500877146209  0.3826509768431920
  0.5740163721657112  0.4259743877530558  0.3872589721138953
  0.4261576688906132  0.8477482307392585  0.8824389638001312
  0.1522698433694662  0.5738486517129161  0.8824159798829179
  0.4267802079515881  0.5732457798222566  0.8875077436175410
  0.8320354438606511  0.4188551733690829  0.2434952611960230
  0.9106180936434703  0.5462449771517940  0.4255030463630954
  0.9108886504052212  0.3653702053366799  0.4218483520051656
  0.6334925051654723  0.5469673330658675  0.4298482762061054
  0.4530301348885912  0.3665088055481278  0.4298673737539034
  0.5808829890767373  0.4190887468397442  0.2477084948142651
  0.6346151368777467  0.0890963424597454  0.4218640105975417
  0.4537438450627953  0.0893704844875736  0.4255296976320895
  0.5811199282513974  0.1679398122970423  0.2435099559485681
  0.1689397397204070  0.5801141619887032  0.7432800598100680
  0.0901116479975716  0.4530193010237764  0.9254128030174503
  0.0898688337613084  0.6338983224365566  0.9213488115708008
  0.3672525311413149  0.4523054507431936  0.9302056463713421
  0.5477113262318528  0.6327683238597935  0.9302315618942207
  0.4200917908555228  0.5799595229217648  0.7479314368880706
  0.3661045684699406  0.9101440358860161  0.9213792672649825
  0.5469829182445701  0.9099028788858836  0.9254448468133391
  0.4199006880696233  0.8310930508501416  0.7433008732413924
  0.6664252047990474  0.3335682029028331  0.4872575646659236
  0.3342406015076587  0.6657643707164241  0.9871833571944737
  0.0000125124370380  0.9999875209413334 -0.0000007328101193
  0.0004367266464680  0.9995744352328734  0.4999886154553574
  0.1463069791391269  0.2930053946373103  0.2460623508727950
  0.7070031984161383  0.8536996801399315  0.2460717350152759
  0.1473450083827365  0.8526488374798761  0.2441807013869359
  0.2934038709697824  0.1456036719276431  0.7458897497423727
  0.8544044913152303  0.7065988167159470  0.7458801387625023
  0.8530748972421247  0.1469288336163663  0.7445572151019154

